<instance format="XCSP3" type="COP">
  <variables>
    <array id="x" size="[47]"> 0..46 </array>
  </variables>
  <constraints>
    <group>
      <intension> ne(%0,%1) </intension>
      <args> x[0] x[1] </args>
      <args> x[0] x[3] </args>
      <args> x[0] x[6] </args>
      <args> x[0] x[8] </args>
      <args> x[0] x[12] </args>
      <args> x[0] x[14] </args>
      <args> x[0] x[17] </args>
      <args> x[0] x[19] </args>
      <args> x[0] x[24] </args>
      <args> x[0] x[26] </args>
      <args> x[0] x[29] </args>
      <args> x[0] x[31] </args>
      <args> x[0] x[35] </args>
      <args> x[0] x[37] </args>
      <args> x[0] x[40] </args>
      <args> x[0] x[42] </args>
      <args> x[1] x[2] </args>
      <args> x[1] x[5] </args>
      <args> x[1] x[7] </args>
      <args> x[1] x[11] </args>
      <args> x[1] x[13] </args>
      <args> x[1] x[16] </args>
      <args> x[1] x[18] </args>
      <args> x[1] x[23] </args>
      <args> x[1] x[25] </args>
      <args> x[1] x[28] </args>
      <args> x[1] x[30] </args>
      <args> x[1] x[34] </args>
      <args> x[1] x[36] </args>
      <args> x[1] x[39] </args>
      <args> x[1] x[41] </args>
      <args> x[2] x[4] </args>
      <args> x[2] x[6] </args>
      <args> x[2] x[9] </args>
      <args> x[2] x[12] </args>
      <args> x[2] x[15] </args>
      <args> x[2] x[17] </args>
      <args> x[2] x[20] </args>
      <args> x[2] x[24] </args>
      <args> x[2] x[27] </args>
      <args> x[2] x[29] </args>
      <args> x[2] x[32] </args>
      <args> x[2] x[35] </args>
      <args> x[2] x[38] </args>
      <args> x[2] x[40] </args>
      <args> x[2] x[43] </args>
      <args> x[3] x[4] </args>
      <args> x[3] x[5] </args>
      <args> x[3] x[9] </args>
      <args> x[3] x[11] </args>
      <args> x[3] x[15] </args>
      <args> x[3] x[16] </args>
      <args> x[3] x[20] </args>
      <args> x[3] x[23] </args>
      <args> x[3] x[27] </args>
      <args> x[3] x[28] </args>
      <args> x[3] x[32] </args>
      <args> x[3] x[34] </args>
      <args> x[3] x[38] </args>
      <args> x[3] x[39] </args>
      <args> x[3] x[43] </args>
      <args> x[4] x[7] </args>
      <args> x[4] x[8] </args>
      <args> x[4] x[13] </args>
      <args> x[4] x[14] </args>
      <args> x[4] x[18] </args>
      <args> x[4] x[19] </args>
      <args> x[4] x[25] </args>
      <args> x[4] x[26] </args>
      <args> x[4] x[30] </args>
      <args> x[4] x[31] </args>
      <args> x[4] x[36] </args>
      <args> x[4] x[37] </args>
      <args> x[4] x[41] </args>
      <args> x[4] x[42] </args>
      <args> x[5] x[10] </args>
      <args> x[5] x[12] </args>
      <args> x[5] x[14] </args>
      <args> x[5] x[21] </args>
      <args> x[5] x[24] </args>
      <args> x[5] x[26] </args>
      <args> x[5] x[33] </args>
      <args> x[5] x[35] </args>
      <args> x[5] x[37] </args>
      <args> x[5] x[44] </args>
      <args> x[6] x[10] </args>
      <args> x[6] x[11] </args>
      <args> x[6] x[13] </args>
      <args> x[6] x[21] </args>
      <args> x[6] x[23] </args>
      <args> x[6] x[25] </args>
      <args> x[6] x[33] </args>
      <args> x[6] x[34] </args>
      <args> x[6] x[36] </args>
      <args> x[6] x[44] </args>
      <args> x[7] x[10] </args>
      <args> x[7] x[12] </args>
      <args> x[7] x[15] </args>
      <args> x[7] x[21] </args>
      <args> x[7] x[24] </args>
      <args> x[7] x[27] </args>
      <args> x[7] x[33] </args>
      <args> x[7] x[35] </args>
      <args> x[7] x[38] </args>
      <args> x[7] x[44] </args>
      <args> x[8] x[10] </args>
      <args> x[8] x[11] </args>
      <args> x[8] x[15] </args>
      <args> x[8] x[21] </args>
      <args> x[8] x[23] </args>
      <args> x[8] x[27] </args>
      <args> x[8] x[33] </args>
      <args> x[8] x[34] </args>
      <args> x[8] x[38] </args>
      <args> x[8] x[44] </args>
      <args> x[9] x[10] </args>
      <args> x[9] x[13] </args>
      <args> x[9] x[14] </args>
      <args> x[9] x[21] </args>
      <args> x[9] x[25] </args>
      <args> x[9] x[26] </args>
      <args> x[9] x[33] </args>
      <args> x[9] x[36] </args>
      <args> x[9] x[37] </args>
      <args> x[9] x[44] </args>
      <args> x[10] x[16] </args>
      <args> x[10] x[17] </args>
      <args> x[10] x[18] </args>
      <args> x[10] x[19] </args>
      <args> x[10] x[20] </args>
      <args> x[10] x[28] </args>
      <args> x[10] x[29] </args>
      <args> x[10] x[30] </args>
      <args> x[10] x[31] </args>
      <args> x[10] x[32] </args>
      <args> x[10] x[39] </args>
      <args> x[10] x[40] </args>
      <args> x[10] x[41] </args>
      <args> x[10] x[42] </args>
      <args> x[10] x[43] </args>
      <args> x[11] x[22] </args>
      <args> x[11] x[24] </args>
      <args> x[11] x[26] </args>
      <args> x[11] x[29] </args>
      <args> x[11] x[31] </args>
      <args> x[11] x[45] </args>
      <args> x[12] x[22] </args>
      <args> x[12] x[23] </args>
      <args> x[12] x[25] </args>
      <args> x[12] x[28] </args>
      <args> x[12] x[30] </args>
      <args> x[12] x[45] </args>
      <args> x[13] x[22] </args>
      <args> x[13] x[24] </args>
      <args> x[13] x[27] </args>
      <args> x[13] x[29] </args>
      <args> x[13] x[32] </args>
      <args> x[13] x[45] </args>
      <args> x[14] x[22] </args>
      <args> x[14] x[23] </args>
      <args> x[14] x[27] </args>
      <args> x[14] x[28] </args>
      <args> x[14] x[32] </args>
      <args> x[14] x[45] </args>
      <args> x[15] x[22] </args>
      <args> x[15] x[25] </args>
      <args> x[15] x[26] </args>
      <args> x[15] x[30] </args>
      <args> x[15] x[31] </args>
      <args> x[15] x[45] </args>
      <args> x[16] x[22] </args>
      <args> x[16] x[24] </args>
      <args> x[16] x[26] </args>
      <args> x[16] x[33] </args>
      <args> x[16] x[45] </args>
      <args> x[17] x[22] </args>
      <args> x[17] x[23] </args>
      <args> x[17] x[25] </args>
      <args> x[17] x[33] </args>
      <args> x[17] x[45] </args>
      <args> x[18] x[22] </args>
      <args> x[18] x[24] </args>
      <args> x[18] x[27] </args>
      <args> x[18] x[33] </args>
      <args> x[18] x[45] </args>
      <args> x[19] x[22] </args>
      <args> x[19] x[23] </args>
      <args> x[19] x[27] </args>
      <args> x[19] x[33] </args>
      <args> x[19] x[45] </args>
      <args> x[20] x[22] </args>
      <args> x[20] x[25] </args>
      <args> x[20] x[26] </args>
      <args> x[20] x[33] </args>
      <args> x[20] x[45] </args>
      <args> x[21] x[22] </args>
      <args> x[21] x[28] </args>
      <args> x[21] x[29] </args>
      <args> x[21] x[30] </args>
      <args> x[21] x[31] </args>
      <args> x[21] x[32] </args>
      <args> x[21] x[45] </args>
      <args> x[22] x[34] </args>
      <args> x[22] x[35] </args>
      <args> x[22] x[36] </args>
      <args> x[22] x[37] </args>
      <args> x[22] x[38] </args>
      <args> x[22] x[39] </args>
      <args> x[22] x[40] </args>
      <args> x[22] x[41] </args>
      <args> x[22] x[42] </args>
      <args> x[22] x[43] </args>
      <args> x[22] x[44] </args>
      <args> x[23] x[46] </args>
      <args> x[24] x[46] </args>
      <args> x[25] x[46] </args>
      <args> x[26] x[46] </args>
      <args> x[27] x[46] </args>
      <args> x[28] x[46] </args>
      <args> x[29] x[46] </args>
      <args> x[30] x[46] </args>
      <args> x[31] x[46] </args>
      <args> x[32] x[46] </args>
      <args> x[33] x[46] </args>
      <args> x[34] x[46] </args>
      <args> x[35] x[46] </args>
      <args> x[36] x[46] </args>
      <args> x[37] x[46] </args>
      <args> x[38] x[46] </args>
      <args> x[39] x[46] </args>
      <args> x[40] x[46] </args>
      <args> x[41] x[46] </args>
      <args> x[42] x[46] </args>
      <args> x[43] x[46] </args>
      <args> x[44] x[46] </args>
      <args> x[45] x[46] </args>
    </group>
  </constraints>
  <objectives>
    <minimize type="maximum"> x[] </minimize>
  </objectives>
</instance>
